p cnf 185 851        
16 17 18 0
-16 -17 0
-16 -18 0
-17 -18 0
-16 -20 0
-16 -21 0
-17 -21 0
19 20 21 0
-19 -20 0
-19 -21 0
-20 -21 0
1 2 3 0
-1 2 -3 0
1 -2 -3 0
22 23 24 25 0
-22 -23 0
-22 -24 0
-22 -25 0
-23 -24 0
-23 -25 0
-24 -25 0
-22 -27 0
-22 -28 0
-22 -29 0
-23 -28 0
-23 -29 0
-24 -29 0
26 27 28 29 0
-26 -27 0
-26 -28 0
-26 -29 0
-27 -28 0
-27 -29 0
-28 -29 0
-25 -26 -19 0
-25 -27 -16 0
-25 -27 -20 0
-25 -28 -17 0
-25 -28 -21 0
-25 -29 -18 0
6 7 8 0
-6 7 -8 0
6 -7 -8 0
30 31 32 33 34 0
-30 -31 0
-30 -32 0
-30 -33 0
-30 -34 0
-31 -32 0
-31 -33 0
-31 -34 0
-32 -33 0
-32 -34 0
-33 -34 0
-30 -36 0
-30 -37 0
-30 -38 0
-30 -39 0
-31 -37 0
-31 -38 0
-31 -39 0
-32 -38 0
-32 -39 0
-33 -39 0
35 36 37 38 39 0
-35 -36 0
-35 -37 0
-35 -38 0
-35 -39 0
-36 -37 0
-36 -38 0
-36 -39 0
-37 -38 0
-37 -39 0
-38 -39 0
-33 -35 -19 0
-33 -36 -16 0
-33 -36 -20 0
-33 -37 -17 0
-33 -37 -21 0
-33 -38 -18 0
-39 -30 -16 0
-39 -30 -20 0
-39 -31 -17 0
-39 -31 -21 0
-39 -32 -18 0
-34 -35 -26 0
-34 -36 -22 0
-34 -36 -27 0
-34 -37 -23 0
-34 -37 -28 0
-34 -38 -24 0
-34 -38 -29 0
-34 -39 -25 0
11 12 13 0
-11 12 -13 0
11 -12 -13 0
25 33 39 0
34 0
40 0
40 0
-16 -50 0
-17 -50 0
-18 -50 0
-19 51 0
-20 -51 0
-21 -51 0
50 51 -52 0
-50 51 -52 1 0
-50 51 52 -1 0
50 -51 -52 2 0
50 -51 52 -2 0
-50 -51 -52 3 0
-50 -51 52 -3 0
-22 -53 0
-23 -53 0
-24 -53 0
-25 53 -52 0
-25 -53 52 0
-26 54 0
-27 -54 0
-28 -54 0
-29 -54 0
53 54 -55 0
-53 54 -55 6 0
-53 54 55 -6 0
53 -54 -55 7 0
53 -54 55 -7 0
-53 -54 -55 8 0
-53 -54 55 -8 0
-30 -56 0
-31 -56 0
-32 -56 0
-33 56 -52 0
-33 -56 52 0
-34 56 -55 0
-34 -56 55 0
-35 57 0
-36 -57 0
-37 -57 0
-38 -57 0
-39 57 -52 0
-39 -57 52 0
56 57 -58 0
-56 57 -58 11 0
-56 57 58 -11 0
56 -57 -58 12 0
56 -57 58 -12 0
-56 -57 -58 13 0
-56 -57 58 -13 0
-40 58 0
-16 59 0
-17 -59 0
-18 -59 0
-19 -60 0
-20 60 0
-21 -60 0
59 60 -61 0
-59 60 -61 1 0
-59 60 61 -1 0
59 -60 -61 2 0
59 -60 61 -2 0
-59 -60 -61 3 0
-59 -60 61 -3 0
-22 62 0
-23 -62 0
-24 -62 0
-25 62 -61 0
-25 -62 61 0
-26 -63 0
-27 63 0
-28 -63 0
-29 -63 0
62 63 -64 0
-62 63 -64 6 0
-62 63 64 -6 0
62 -63 -64 7 0
62 -63 64 -7 0
-62 -63 -64 8 0
-62 -63 64 -8 0
-30 65 0
-31 -65 0
-32 -65 0
-33 65 -61 0
-33 -65 61 0
-34 65 -64 0
-34 -65 64 0
-35 -66 0
-36 66 0
-37 -66 0
-38 -66 0
-39 66 -61 0
-39 -66 61 0
65 66 -67 0
-65 66 -67 11 0
-65 66 67 -11 0
65 -66 -67 12 0
65 -66 67 -12 0
-65 -66 -67 13 0
-65 -66 67 -13 0
-40 67 0
-16 68 0
-17 -68 0
-18 -68 0
-19 69 0
-20 69 0
-21 -69 0
68 69 -70 0
-68 69 -70 1 0
-68 69 70 -1 0
68 -69 -70 2 0
68 -69 70 -2 0
-68 -69 -70 3 0
-68 -69 70 -3 0
-22 71 0
-23 -71 0
-24 -71 0
-25 71 -70 0
-25 -71 70 0
-26 72 0
-27 72 0
-28 -72 0
-29 -72 0
71 72 -73 0
-71 72 -73 6 0
-71 72 73 -6 0
71 -72 -73 7 0
71 -72 73 -7 0
-71 -72 -73 8 0
-71 -72 73 -8 0
-30 74 0
-31 -74 0
-32 -74 0
-33 74 -70 0
-33 -74 70 0
-34 74 -73 0
-34 -74 73 0
-35 75 0
-36 75 0
-37 -75 0
-38 -75 0
-39 75 -70 0
-39 -75 70 0
74 75 -76 0
-74 75 -76 11 0
-74 75 76 -11 0
74 -75 -76 12 0
74 -75 76 -12 0
-74 -75 -76 13 0
-74 -75 76 -13 0
-40 -76 0
-16 -77 0
-17 77 0
-18 -77 0
-19 -78 0
-20 -78 0
-21 78 0
77 78 -79 0
-77 78 -79 1 0
-77 78 79 -1 0
77 -78 -79 2 0
77 -78 79 -2 0
-77 -78 -79 3 0
-77 -78 79 -3 0
-22 -80 0
-23 80 0
-24 -80 0
-25 80 -79 0
-25 -80 79 0
-26 -81 0
-27 -81 0
-28 81 0
-29 -81 0
80 81 -82 0
-80 81 -82 6 0
-80 81 82 -6 0
80 -81 -82 7 0
80 -81 82 -7 0
-80 -81 -82 8 0
-80 -81 82 -8 0
-30 -83 0
-31 83 0
-32 -83 0
-33 83 -79 0
-33 -83 79 0
-34 83 -82 0
-34 -83 82 0
-35 -84 0
-36 -84 0
-37 84 0
-38 -84 0
-39 84 -79 0
-39 -84 79 0
83 84 -85 0
-83 84 -85 11 0
-83 84 85 -11 0
83 -84 -85 12 0
83 -84 85 -12 0
-83 -84 -85 13 0
-83 -84 85 -13 0
-40 85 0
-16 -86 0
-17 86 0
-18 -86 0
-19 87 0
-20 -87 0
-21 87 0
86 87 -88 0
-86 87 -88 1 0
-86 87 88 -1 0
86 -87 -88 2 0
86 -87 88 -2 0
-86 -87 -88 3 0
-86 -87 88 -3 0
-22 -89 0
-23 89 0
-24 -89 0
-25 89 -88 0
-25 -89 88 0
-26 90 0
-27 -90 0
-28 90 0
-29 -90 0
89 90 -91 0
-89 90 -91 6 0
-89 90 91 -6 0
89 -90 -91 7 0
89 -90 91 -7 0
-89 -90 -91 8 0
-89 -90 91 -8 0
-30 -92 0
-31 92 0
-32 -92 0
-33 92 -88 0
-33 -92 88 0
-34 92 -91 0
-34 -92 91 0
-35 93 0
-36 -93 0
-37 93 0
-38 -93 0
-39 93 -88 0
-39 -93 88 0
92 93 -94 0
-92 93 -94 11 0
-92 93 94 -11 0
92 -93 -94 12 0
92 -93 94 -12 0
-92 -93 -94 13 0
-92 -93 94 -13 0
-40 -94 0
-16 95 0
-17 95 0
-18 -95 0
-19 -96 0
-20 96 0
-21 96 0
95 96 -97 0
-95 96 -97 1 0
-95 96 97 -1 0
95 -96 -97 2 0
95 -96 97 -2 0
-95 -96 -97 3 0
-95 -96 97 -3 0
-22 98 0
-23 98 0
-24 -98 0
-25 98 -97 0
-25 -98 97 0
-26 -99 0
-27 99 0
-28 99 0
-29 -99 0
98 99 -100 0
-98 99 -100 6 0
-98 99 100 -6 0
98 -99 -100 7 0
98 -99 100 -7 0
-98 -99 -100 8 0
-98 -99 100 -8 0
-30 101 0
-31 101 0
-32 -101 0
-33 101 -97 0
-33 -101 97 0
-34 101 -100 0
-34 -101 100 0
-35 -102 0
-36 102 0
-37 102 0
-38 -102 0
-39 102 -97 0
-39 -102 97 0
101 102 -103 0
-101 102 -103 11 0
-101 102 103 -11 0
101 -102 -103 12 0
101 -102 103 -12 0
-101 -102 -103 13 0
-101 -102 103 -13 0
-40 -103 0
-16 104 0
-17 104 0
-18 -104 0
-19 105 0
-20 105 0
-21 105 0
104 105 -106 0
-104 105 -106 1 0
-104 105 106 -1 0
104 -105 -106 2 0
104 -105 106 -2 0
-104 -105 -106 3 0
-104 -105 106 -3 0
-22 107 0
-23 107 0
-24 -107 0
-25 107 -106 0
-25 -107 106 0
-26 108 0
-27 108 0
-28 108 0
-29 -108 0
107 108 -109 0
-107 108 -109 6 0
-107 108 109 -6 0
107 -108 -109 7 0
107 -108 109 -7 0
-107 -108 -109 8 0
-107 -108 109 -8 0
-30 110 0
-31 110 0
-32 -110 0
-33 110 -106 0
-33 -110 106 0
-34 110 -109 0
-34 -110 109 0
-35 111 0
-36 111 0
-37 111 0
-38 -111 0
-39 111 -106 0
-39 -111 106 0
110 111 -112 0
-110 111 -112 11 0
-110 111 112 -11 0
110 -111 -112 12 0
110 -111 112 -12 0
-110 -111 -112 13 0
-110 -111 112 -13 0
-40 -112 0
-16 -113 0
-17 -113 0
-18 113 0
-19 -114 0
-20 -114 0
-21 -114 0
113 114 -115 0
-113 114 -115 1 0
-113 114 115 -1 0
113 -114 -115 2 0
113 -114 115 -2 0
-113 -114 -115 3 0
-113 -114 115 -3 0
-22 -116 0
-23 -116 0
-24 116 0
-25 116 -115 0
-25 -116 115 0
-26 -117 0
-27 -117 0
-28 -117 0
-29 117 0
116 117 -118 0
-116 117 -118 6 0
-116 117 118 -6 0
116 -117 -118 7 0
116 -117 118 -7 0
-116 -117 -118 8 0
-116 -117 118 -8 0
-30 -119 0
-31 -119 0
-32 119 0
-33 119 -115 0
-33 -119 115 0
-34 119 -118 0
-34 -119 118 0
-35 -120 0
-36 -120 0
-37 -120 0
-38 120 0
-39 120 -115 0
-39 -120 115 0
119 120 -121 0
-119 120 -121 11 0
-119 120 121 -11 0
119 -120 -121 12 0
119 -120 121 -12 0
-119 -120 -121 13 0
-119 -120 121 -13 0
-40 -121 0
-16 -122 0
-17 -122 0
-18 122 0
-19 123 0
-20 -123 0
-21 -123 0
122 123 -124 0
-122 123 -124 1 0
-122 123 124 -1 0
122 -123 -124 2 0
122 -123 124 -2 0
-122 -123 -124 3 0
-122 -123 124 -3 0
-22 -125 0
-23 -125 0
-24 125 0
-25 125 -124 0
-25 -125 124 0
-26 126 0
-27 -126 0
-28 -126 0
-29 126 0
125 126 -127 0
-125 126 -127 6 0
-125 126 127 -6 0
125 -126 -127 7 0
125 -126 127 -7 0
-125 -126 -127 8 0
-125 -126 127 -8 0
-30 -128 0
-31 -128 0
-32 128 0
-33 128 -124 0
-33 -128 124 0
-34 128 -127 0
-34 -128 127 0
-35 129 0
-36 -129 0
-37 -129 0
-38 129 0
-39 129 -124 0
-39 -129 124 0
128 129 -130 0
-128 129 -130 11 0
-128 129 130 -11 0
128 -129 -130 12 0
128 -129 130 -12 0
-128 -129 -130 13 0
-128 -129 130 -13 0
-40 -130 0
-16 131 0
-17 -131 0
-18 131 0
-19 -132 0
-20 132 0
-21 -132 0
131 132 -133 0
-131 132 -133 1 0
-131 132 133 -1 0
131 -132 -133 2 0
131 -132 133 -2 0
-131 -132 -133 3 0
-131 -132 133 -3 0
-22 134 0
-23 -134 0
-24 134 0
-25 134 -133 0
-25 -134 133 0
-26 -135 0
-27 135 0
-28 -135 0
-29 135 0
134 135 -136 0
-134 135 -136 6 0
-134 135 136 -6 0
134 -135 -136 7 0
134 -135 136 -7 0
-134 -135 -136 8 0
-134 -135 136 -8 0
-30 137 0
-31 -137 0
-32 137 0
-33 137 -133 0
-33 -137 133 0
-34 137 -136 0
-34 -137 136 0
-35 -138 0
-36 138 0
-37 -138 0
-38 138 0
-39 138 -133 0
-39 -138 133 0
137 138 -139 0
-137 138 -139 11 0
-137 138 139 -11 0
137 -138 -139 12 0
137 -138 139 -12 0
-137 -138 -139 13 0
-137 -138 139 -13 0
-40 -139 0
-16 140 0
-17 -140 0
-18 140 0
-19 141 0
-20 141 0
-21 -141 0
140 141 -142 0
-140 141 -142 1 0
-140 141 142 -1 0
140 -141 -142 2 0
140 -141 142 -2 0
-140 -141 -142 3 0
-140 -141 142 -3 0
-22 143 0
-23 -143 0
-24 143 0
-25 143 -142 0
-25 -143 142 0
-26 144 0
-27 144 0
-28 -144 0
-29 144 0
143 144 -145 0
-143 144 -145 6 0
-143 144 145 -6 0
143 -144 -145 7 0
143 -144 145 -7 0
-143 -144 -145 8 0
-143 -144 145 -8 0
-30 146 0
-31 -146 0
-32 146 0
-33 146 -142 0
-33 -146 142 0
-34 146 -145 0
-34 -146 145 0
-35 147 0
-36 147 0
-37 -147 0
-38 147 0
-39 147 -142 0
-39 -147 142 0
146 147 -148 0
-146 147 -148 11 0
-146 147 148 -11 0
146 -147 -148 12 0
146 -147 148 -12 0
-146 -147 -148 13 0
-146 -147 148 -13 0
-40 -148 0
-16 -149 0
-17 149 0
-18 149 0
-19 -150 0
-20 -150 0
-21 150 0
149 150 -151 0
-149 150 -151 1 0
-149 150 151 -1 0
149 -150 -151 2 0
149 -150 151 -2 0
-149 -150 -151 3 0
-149 -150 151 -3 0
-22 -152 0
-23 152 0
-24 152 0
-25 152 -151 0
-25 -152 151 0
-26 -153 0
-27 -153 0
-28 153 0
-29 153 0
152 153 -154 0
-152 153 -154 6 0
-152 153 154 -6 0
152 -153 -154 7 0
152 -153 154 -7 0
-152 -153 -154 8 0
-152 -153 154 -8 0
-30 -155 0
-31 155 0
-32 155 0
-33 155 -151 0
-33 -155 151 0
-34 155 -154 0
-34 -155 154 0
-35 -156 0
-36 -156 0
-37 156 0
-38 156 0
-39 156 -151 0
-39 -156 151 0
155 156 -157 0
-155 156 -157 11 0
-155 156 157 -11 0
155 -156 -157 12 0
155 -156 157 -12 0
-155 -156 -157 13 0
-155 -156 157 -13 0
-40 -157 0
-16 -158 0
-17 158 0
-18 158 0
-19 159 0
-20 -159 0
-21 159 0
158 159 -160 0
-158 159 -160 1 0
-158 159 160 -1 0
158 -159 -160 2 0
158 -159 160 -2 0
-158 -159 -160 3 0
-158 -159 160 -3 0
-22 -161 0
-23 161 0
-24 161 0
-25 161 -160 0
-25 -161 160 0
-26 162 0
-27 -162 0
-28 162 0
-29 162 0
161 162 -163 0
-161 162 -163 6 0
-161 162 163 -6 0
161 -162 -163 7 0
161 -162 163 -7 0
-161 -162 -163 8 0
-161 -162 163 -8 0
-30 -164 0
-31 164 0
-32 164 0
-33 164 -160 0
-33 -164 160 0
-34 164 -163 0
-34 -164 163 0
-35 165 0
-36 -165 0
-37 165 0
-38 165 0
-39 165 -160 0
-39 -165 160 0
164 165 -166 0
-164 165 -166 11 0
-164 165 166 -11 0
164 -165 -166 12 0
164 -165 166 -12 0
-164 -165 -166 13 0
-164 -165 166 -13 0
-40 -166 0
-16 167 0
-17 167 0
-18 167 0
-19 -168 0
-20 168 0
-21 168 0
167 168 -169 0
-167 168 -169 1 0
-167 168 169 -1 0
167 -168 -169 2 0
167 -168 169 -2 0
-167 -168 -169 3 0
-167 -168 169 -3 0
-22 170 0
-23 170 0
-24 170 0
-25 170 -169 0
-25 -170 169 0
-26 -171 0
-27 171 0
-28 171 0
-29 171 0
170 171 -172 0
-170 171 -172 6 0
-170 171 172 -6 0
170 -171 -172 7 0
170 -171 172 -7 0
-170 -171 -172 8 0
-170 -171 172 -8 0
-30 173 0
-31 173 0
-32 173 0
-33 173 -169 0
-33 -173 169 0
-34 173 -172 0
-34 -173 172 0
-35 -174 0
-36 174 0
-37 174 0
-38 174 0
-39 174 -169 0
-39 -174 169 0
173 174 -175 0
-173 174 -175 11 0
-173 174 175 -11 0
173 -174 -175 12 0
173 -174 175 -12 0
-173 -174 -175 13 0
-173 -174 175 -13 0
-40 -175 0
-16 176 0
-17 176 0
-18 176 0
-19 177 0
-20 177 0
-21 177 0
176 177 -178 0
-176 177 -178 1 0
-176 177 178 -1 0
176 -177 -178 2 0
176 -177 178 -2 0
-176 -177 -178 3 0
-176 -177 178 -3 0
-22 179 0
-23 179 0
-24 179 0
-25 179 -178 0
-25 -179 178 0
-26 180 0
-27 180 0
-28 180 0
-29 180 0
179 180 -181 0
-179 180 -181 6 0
-179 180 181 -6 0
179 -180 -181 7 0
179 -180 181 -7 0
-179 -180 -181 8 0
-179 -180 181 -8 0
-30 182 0
-31 182 0
-32 182 0
-33 182 -178 0
-33 -182 178 0
-34 182 -181 0
-34 -182 181 0
-35 183 0
-36 183 0
-37 183 0
-38 183 0
-39 183 -178 0
-39 -183 178 0
182 183 -184 0
-182 183 -184 11 0
-182 183 184 -11 0
182 -183 -184 12 0
182 -183 184 -12 0
-182 -183 -184 13 0
-182 -183 184 -13 0
-40 -184 0
